nNurses = 189;
hours = 71;
demand = [23 2 25 15 24 17 36 20 3 18 29 8 30 13 43 23 45 8 14 21 10 17 13 37 13 39 38 16 10 27 44 4 40 23 21 11 46 10 10 39 7 31 0 23 1 30 23 9 9 7 46 23 1 7 9 29 9 0 46 26 37 0 5 28 24 43 45 1 22 1 28];
minHours = 10;
maxHours = 32;
maxConsec = 21;
maxPresence = 44;